83
150
105	7
103	3
102	4
101	5
100	3
99	1
98	4
97	2
96	1
95	4
93	3
92	3
91	4
90	8
89	5
88	2
87	2
86	3
83	3
82	3
81	4
80	6
79	3
78	4
77	1
76	3
75	1
74	5
73	1
72	1
71	3
70	2
69	4
68	5
67	3
66	5
65	3
64	4
63	2
62	1
61	4
60	2
59	3
58	8
56	4
55	2
54	4
53	2
52	3
50	9
49	4
48	4
46	2
45	2
44	4
43	5
42	1
41	3
40	3
39	3
38	7
37	6
36	4
35	1
34	6
33	4
32	4
31	8
30	3
29	3
28	5
27	5
26	4
24	7
23	4
22	2
21	2
20	3
19	2
18	5
17	5
16	3
15	4
